90
1192
7
92
23
7
67
13
82
81
0 15
0 19
0 20
0 21
0 24
0 28
0 33
0 39
0 42
0 43
0 44
0 46
0 47
0 53
0 61
0 67
0 71
0 78
0 83
1 7
1 8
1 9
1 10
1 13
1 14
1 20
1 23
1 25
1 26
1 27
1 29
1 30
1 31
1 32
1 37
1 38
1 39
1 43
1 50
1 53
1 56
1 57
1 58
1 62
1 64
1 72
1 82
2 12
2 14
2 16
2 17
2 24
2 26
2 28
2 37
2 39
2 41
2 43
2 48
2 51
2 52
2 53
2 54
2 55
2 63
2 69
2 71
2 81
2 83
2 85
2 86
2 87
2 89
3 4
3 5
3 11
3 14
3 16
3 24
3 30
3 31
3 34
3 44
3 45
3 46
3 48
3 49
3 53
3 55
3 56
3 58
3 60
3 65
3 67
3 71
3 76
3 78
3 81
3 83
3 85
3 86
3 87
4 5
4 6
4 8
4 9
4 15
4 16
4 20
4 22
4 24
4 29
4 30
4 32
4 33
4 38
4 39
4 40
4 44
4 53
4 62
4 68
4 72
4 74
4 76
4 77
4 83
4 86
4 87
5 6
5 8
5 16
5 17
5 22
5 32
5 35
5 41
5 48
5 58
5 63
5 74
5 78
5 80
5 81
5 86
5 88
6 13
6 17
6 18
6 24
6 26
6 27
6 33
6 34
6 38
6 46
6 47
6 49
6 50
6 53
6 61
6 65
6 69
6 76
6 83
6 85
7 9
7 10
7 12
7 20
7 27
7 37
7 44
7 53
7 57
7 63
7 64
7 65
7 70
7 73
7 80
7 81
7 86
8 10
8 11
8 15
8 16
8 19
8 21
8 23
8 26
8 27
8 31
8 39
8 46
8 51
8 60
8 62
8 63
8 65
8 67
8 69
8 71
8 73
8 77
8 82
8 86
8 88
8 89
9 14
9 19
9 21
9 22
9 24
9 28
9 29
9 31
9 34
9 36
9 40
9 50
9 52
9 56
9 58
9 61
9 63
9 64
9 65
9 68
9 69
9 70
9 71
9 76
9 79
9 82
9 83
9 87
10 16
10 21
10 25
10 29
10 33
10 40
10 44
10 46
10 56
10 62
10 63
10 66
10 69
10 82
10 86
11 12
11 13
11 15
11 20
11 21
11 25
11 29
11 30
11 33
11 36
11 38
11 41
11 44
11 45
11 46
11 47
11 49
11 52
11 58
11 60
11 71
11 73
11 75
11 81
11 86
12 18
12 19
12 22
12 24
12 28
12 33
12 34
12 36
12 40
12 42
12 46
12 53
12 59
12 60
12 63
12 64
12 67
12 78
12 80
12 81
12 82
12 86
12 88
13 14
13 19
13 20
13 23
13 24
13 28
13 29
13 32
13 33
13 42
13 44
13 45
13 47
13 48
13 49
13 52
13 55
13 57
13 60
13 63
13 65
13 69
13 70
13 73
13 75
13 78
13 79
13 81
13 83
13 85
13 86
13 89
14 15
14 16
14 21
14 25
14 27
14 29
14 32
14 35
14 38
14 40
14 43
14 47
14 49
14 51
14 56
14 58
14 62
14 66
14 73
14 75
14 76
14 78
14 79
14 82
14 84
14 85
15 17
15 18
15 19
15 26
15 29
15 30
15 31
15 33
15 36
15 39
15 54
15 58
15 63
15 64
15 68
15 72
15 73
15 78
15 79
15 80
15 82
15 83
15 85
15 87
15 89
16 22
16 23
16 25
16 26
16 31
16 37
16 38
16 39
16 40
16 43
16 51
16 52
16 64
16 68
16 75
16 76
16 77
16 82
16 84
16 85
16 86
16 87
17 22
17 25
17 30
17 33
17 34
17 35
17 43
17 49
17 50
17 52
17 56
17 59
17 64
17 65
17 69
17 70
17 72
17 73
17 80
17 82
17 84
17 86
17 87
18 29
18 31
18 39
18 40
18 46
18 47
18 48
18 49
18 55
18 61
18 62
18 63
18 65
18 67
18 71
18 72
18 73
18 75
18 77
18 78
18 84
18 85
19 23
19 24
19 27
19 34
19 39
19 40
19 44
19 47
19 53
19 58
19 60
19 65
19 66
19 67
19 79
19 82
19 83
20 22
20 23
20 28
20 30
20 33
20 34
20 38
20 39
20 45
20 48
20 49
20 50
20 52
20 58
20 61
20 65
20 66
20 69
20 70
20 75
20 77
20 84
20 88
21 22
21 29
21 30
21 33
21 34
21 42
21 43
21 50
21 51
21 54
21 55
21 58
21 60
21 66
21 73
21 75
21 84
21 87
21 88
22 24
22 28
22 33
22 34
22 36
22 40
22 42
22 44
22 45
22 46
22 48
22 51
22 60
22 63
22 64
22 66
22 67
22 71
22 75
22 77
22 80
22 81
22 84
22 86
22 87
23 29
23 33
23 36
23 42
23 43
23 45
23 46
23 51
23 52
23 57
23 59
23 61
23 67
23 74
23 75
23 84
24 25
24 29
24 36
24 41
24 42
24 45
24 50
24 56
24 57
24 59
24 63
24 64
24 65
24 69
24 70
24 73
24 80
24 83
25 26
25 27
25 30
25 33
25 34
25 35
25 37
25 39
25 42
25 45
25 46
25 47
25 50
25 51
25 58
25 60
25 62
25 63
25 65
25 70
25 72
25 77
25 78
25 80
25 81
25 82
25 84
25 86
25 87
26 28
26 35
26 37
26 38
26 40
26 49
26 51
26 55
26 56
26 57
26 58
26 63
26 65
26 66
26 72
26 74
26 79
26 82
26 83
26 86
26 88
27 33
27 41
27 42
27 46
27 48
27 59
27 73
27 76
27 79
27 82
27 83
27 84
27 85
28 29
28 35
28 37
28 39
28 41
28 43
28 51
28 52
28 56
28 59
28 60
28 62
28 63
28 75
28 78
28 85
28 86
28 88
29 33
29 36
29 53
29 58
29 64
29 70
29 71
29 72
29 74
29 75
29 77
29 79
29 82
30 40
30 44
30 48
30 53
30 62
30 78
30 80
30 82
30 83
30 89
31 32
31 33
31 35
31 36
31 39
31 49
31 52
31 56
31 65
31 75
31 78
31 81
31 83
31 85
31 89
32 36
32 38
32 39
32 40
32 44
32 45
32 50
32 51
32 53
32 54
32 55
32 57
32 63
32 66
32 67
32 70
32 72
32 73
32 75
32 80
32 83
32 86
33 34
33 36
33 40
33 41
33 42
33 45
33 48
33 53
33 54
33 56
33 61
33 66
33 68
33 71
33 73
33 78
33 79
33 80
33 84
33 87
33 88
33 89
34 35
34 36
34 37
34 43
34 44
34 62
34 68
34 70
34 75
34 76
34 77
34 82
34 83
34 86
34 87
35 37
35 42
35 43
35 55
35 56
35 63
35 67
35 76
35 77
35 82
35 87
36 38
36 46
36 55
36 57
36 60
36 61
36 62
36 66
36 69
36 70
36 71
36 75
36 76
36 78
36 79
36 81
36 86
37 39
37 41
37 47
37 50
37 53
37 59
37 65
37 70
37 75
37 76
37 80
37 86
37 87
38 39
38 40
38 41
38 44
38 45
38 47
38 49
38 54
38 55
38 59
38 60
38 62
38 64
38 67
38 68
38 81
38 87
38 88
38 89
39 42
39 49
39 51
39 52
39 58
39 60
39 63
39 70
39 76
39 81
39 82
39 86
39 88
39 89
40 41
40 48
40 49
40 54
40 58
40 59
40 61
40 63
40 67
40 70
40 73
40 76
40 78
40 79
40 80
40 81
40 82
40 86
40 88
40 89
41 47
41 50
41 54
41 58
41 61
41 66
41 77
41 79
41 85
41 86
42 43
42 47
42 50
42 55
42 57
42 58
42 61
42 63
42 65
42 66
42 67
42 73
42 82
42 87
42 89
43 46
43 49
43 55
43 56
43 57
43 61
43 62
43 65
43 70
43 73
43 79
43 81
43 82
43 84
43 86
44 47
44 49
44 51
44 54
44 55
44 56
44 59
44 60
44 62
44 66
44 67
44 74
44 79
44 85
44 86
44 89
45 47
45 49
45 51
45 53
45 54
45 60
45 63
45 68
45 74
45 76
45 78
45 83
45 86
46 48
46 49
46 50
46 53
46 56
46 67
46 72
46 76
46 78
46 79
46 80
46 85
46 86
47 50
47 52
47 54
47 55
47 59
47 72
47 73
47 77
47 81
47 84
47 85
47 89
48 49
48 50
48 54
48 68
48 76
48 79
48 83
48 85
48 89
49 54
49 59
49 67
49 70
49 71
49 72
49 76
49 79
49 80
49 87
50 57
50 58
50 60
50 62
50 64
50 65
50 66
50 67
50 70
50 78
50 85
50 89
51 57
51 62
51 65
51 69
51 71
51 72
51 74
51 77
51 82
51 85
51 86
51 87
52 54
52 57
52 60
52 73
52 74
52 76
52 77
52 78
52 80
52 82
52 85
52 89
53 55
53 59
53 60
53 61
53 66
53 69
53 73
53 81
53 83
53 87
53 88
54 55
54 56
54 58
54 61
54 62
54 68
54 73
54 80
54 83
54 84
55 58
55 59
55 61
55 63
55 67
55 68
55 70
55 71
55 73
55 75
55 78
55 81
55 84
55 87
55 88
56 60
56 62
56 65
56 66
56 68
56 74
56 85
57 61
57 62
57 64
57 66
57 69
57 80
57 88
58 69
58 76
58 77
58 78
58 89
59 63
59 65
59 66
59 72
59 73
59 74
59 78
59 79
59 82
59 84
60 62
60 63
60 71
60 72
60 76
60 77
60 78
60 84
60 85
61 63
61 70
61 72
61 73
61 75
61 78
61 79
61 81
61 83
61 86
61 88
61 89
62 65
62 66
62 70
62 74
62 80
62 82
62 84
63 64
63 67
63 69
63 79
63 83
63 87
64 65
64 68
64 69
64 74
64 75
64 80
64 82
64 84
64 85
64 86
64 88
64 89
65 79
65 86
66 69
66 75
66 77
66 82
66 84
67 71
67 79
67 80
67 89
68 77
68 78
68 80
68 81
68 82
69 70
69 78
69 80
69 82
69 85
70 73
70 75
70 76
70 78
70 79
70 81
70 82
70 85
70 89
71 72
71 79
71 83
71 84
72 74
72 75
72 83
72 84
72 87
73 75
73 77
73 80
73 83
73 85
73 86
74 80
74 81
74 86
74 87
74 88
75 77
75 78
75 79
75 80
75 81
75 82
75 84
76 77
76 79
76 83
76 87
77 80
77 89
78 83
78 84
78 87
79 80
79 82
79 84
79 87
79 88
80 85
80 87
80 88
81 83
81 86
81 87
81 88
81 89
82 86
83 84
83 85
83 86
83 87
83 89
84 86
84 87
84 89
85 86
85 87
85 89
86 87
45 57 64 58 39 47 40 27 31 36 24 75 49
11 76 35 8 17 4 79 73 81 80 43 69 74
32 71 6 19 67 34 42 55 7 33 0 68 15
38 62 60 26 37 20 18 29 23 89 59 28 12
51 56 48 53 72 83 44 13 65 41 25 66 10
1 16 54 63 46 88 22 9 78 77 5 14 30
50 87 86 84 82 3 52 70 85 21 2 61
